unsat
( c0
  c1
  c105
  c109
  c111
  c118
  c12
  c120
  c124
  c127
  c145
  c15
  c150
  c159
  c163
  c165
  c172
  c174
  c18
  c181
  c183
  c19
  c197
  c198
  c199
  c2
  c20
  c204
  c213
  c217
  c219
  c221
  c223
  c226
  c235
  c237
  c293
  c30
  c302
  c303
  c32
  c33
  c336
  c357
  c36
  c37
  c375
  c38
  c389
  c393
  c417
  c421
  c424
  c425
  c426
  c429
  c43
  c430
  c431
  c432
  c433
  c434
  c435
  c439
  c44
  c440
  c441
  c45
  c452
  c456
  c461
  c465
  c470
  c474
  c478
  c48
  c481
  c490
  c493
  c502
  c507
  c51
  c511
  c516
  c518
  c522
  c524
  c527
  c529
  c531
  c539
  c541
  c542
  c70
  c81
  c82
  c83
  c84
  c85
  c86
  c91
  c96 )
